x = 15;
y = 16;
c = 81;
n = 75;

p = [45  67  27  49  67  92  78  94  12  51  58  56  87  59  76  68  39  74  33  41  10  17  44  73  29  20  91  25  15  21  40  83  100  38  74  67  83  69  97  36  14  70  99  72  59  56  19  42  28  19  88  53  29  93  89  26  93  75  19  59  21  48  28  63  35  13  42  31  95  28  24  10  88  64  98];
w = [8  2  4  3  6  5  5  7  3  9  6  2  7  1  7  4  9  10  1  9  9  2  9  7  2  3  5  7  7  5  3  7  4  10  8  4  7  6  3  10  7  9  4  8  7  1  10  4  7  2  8  4  9  3  8  10  2  6  9  1  10  10  8  4  1  10  8  2  7  7  7  3  6  2  1];
s = [6  15  9  13  6  6  11  13  10  5  6  5  14  8  6  12  10  15  6  14  4  4  6  11  12  4  1  4  2  8  5  2  13  3  8  11  5  5  10  4  12  14  5  8  13  5  7  2  2  15  2  5  5  4  5  6  5  10  12  9  15  3  6  15  3  3  6  3  1  7  1  2  6  10  3];
